<?xml version = "1.0" encoding="UTF-8" standalone="yes"?>
<CPLEXSolution version="1.2">
 <header
   problemName=""
   solutionName="p0"
   solutionIndex="-1"
   objectiveValue="31.999999999999957"
   solutionTypeValue="3"
   solutionTypeString="primal"
   solutionStatusValue="127"
   solutionStatusString="integer feasible solution"
   solutionMethodString="mip"
   primalFeasible="0"
   dualFeasible="0"
   writeLevel="1"/>
 <quality
   epInt="1.0000000000000001e-05"
   epRHS="9.9999999999999995e-07"
   maxIntInfeas="0"
   maxPrimalInfeas="4.4408920985006262e-14"
   maxX="52"
   maxSlack="14.999999999999957"/>
 <linearConstraints>
  <constraint index="0" slack="-2.0000000000000426"/>
  <constraint index="1" slack="-3.9999999999999574"/>
  <constraint index="2" slack="-6.9999999999999556"/>
  <constraint index="3" slack="-1.7763568394002505e-15"/>
  <constraint index="4" slack="0"/>
  <constraint index="5" slack="1.7763568394002505e-15"/>
  <constraint index="6" slack="-1"/>
  <constraint index="7" slack="-2"/>
  <constraint index="8" slack="-1.7763568394002505e-15"/>
  <constraint index="9" slack="0"/>
  <constraint index="10" slack="0"/>
  <constraint index="11" slack="0"/>
  <constraint index="12" slack="0"/>
  <constraint index="13" slack="0"/>
  <constraint index="14" slack="1.7763568394002505e-15"/>
  <constraint index="15" slack="-3.5527136788005009e-15"/>
  <constraint index="16" slack="0"/>
  <constraint index="17" slack="-7.1054273576010019e-15"/>
  <constraint index="18" slack="-7.1054273576010019e-15"/>
  <constraint index="19" slack="0"/>
  <constraint index="20" slack="0"/>
  <constraint index="21" slack="0"/>
  <constraint index="22" slack="0"/>
  <constraint index="23" slack="0"/>
  <constraint index="24" slack="0"/>
  <constraint index="25" slack="0"/>
  <constraint index="26" slack="0"/>
  <constraint index="27" slack="-2"/>
  <constraint index="28" slack="-14.999999999999957"/>
  <constraint index="29" slack="-8.9999999999999574"/>
 </linearConstraints>
 <variables>
  <variable name="x_0_0" index="0" value="19.999999999999957"/>
  <variable name="x_0_1" index="1" value="14.999999999999956"/>
  <variable name="x_0_2" index="2" value="0"/>
  <variable name="x_0_3" index="3" value="5"/>
  <variable name="x_1_0" index="4" value="23"/>
  <variable name="x_1_1" index="5" value="0"/>
  <variable name="x_1_2" index="6" value="8.9999999999999982"/>
  <variable name="x_1_3" index="7" value="17"/>
  <variable name="x_2_0" index="8" value="29.999999999999957"/>
  <variable name="x_2_1" index="9" value="19.999999999999957"/>
  <variable name="x_2_2" index="10" value="5"/>
  <variable name="x_2_3" index="11" value="0"/>
  <variable name="z_0_0_1" index="12" value="-0"/>
  <variable name="z_0_0_2" index="13" value="0"/>
  <variable name="z_0_0_3" index="14" value="-0"/>
  <variable name="z_0_1_2" index="15" value="-0"/>
  <variable name="z_0_1_3" index="16" value="-0"/>
  <variable name="z_0_2_3" index="17" value="1"/>
  <variable name="z_1_0_1" index="18" value="0"/>
  <variable name="z_1_0_2" index="19" value="-0"/>
  <variable name="z_1_0_3" index="20" value="-0"/>
  <variable name="z_1_1_2" index="21" value="1"/>
  <variable name="z_1_1_3" index="22" value="1"/>
  <variable name="z_1_2_3" index="23" value="1"/>
  <variable name="z_2_0_1" index="24" value="-0"/>
  <variable name="z_2_0_2" index="25" value="-0"/>
  <variable name="z_2_0_3" index="26" value="-0"/>
  <variable name="z_2_1_2" index="27" value="-0"/>
  <variable name="z_2_1_3" index="28" value="-0"/>
  <variable name="z_2_2_3" index="29" value="-0"/>
  <variable name="cmax" index="30" value="31.999999999999957"/>
  <variable name="q_0_0_1" index="31" value="0"/>
  <variable name="q_0_0_2" index="32" value="14.999999999999957"/>
  <variable name="q_0_0_3" index="33" value="4.9999999999999574"/>
  <variable name="q_0_1_2" index="34" value="9.9999999999999556"/>
  <variable name="q_0_1_3" index="35" value="-4.4408920985006262e-14"/>
  <variable name="q_0_2_3" index="36" value="51"/>
  <variable name="q_1_0_1" index="37" value="15.000000000000002"/>
  <variable name="q_1_0_2" index="38" value="5.9999999999999991"/>
  <variable name="q_1_0_3" index="39" value="0"/>
  <variable name="q_1_1_2" index="40" value="48.999999999999993"/>
  <variable name="q_1_1_3" index="41" value="42.999999999999993"/>
  <variable name="q_1_2_3" index="42" value="52"/>
  <variable name="q_2_0_1" index="43" value="0"/>
  <variable name="q_2_0_2" index="44" value="20.999999999999957"/>
  <variable name="q_2_0_3" index="45" value="25.999999999999957"/>
  <variable name="q_2_1_2" index="46" value="10.999999999999957"/>
  <variable name="q_2_1_3" index="47" value="15.999999999999957"/>
  <variable name="q_2_2_3" index="48" value="1"/>
 </variables>
</CPLEXSolution>
